NAME : att48
TYPE : OP
DIMENSION : 48
COST_LIMIT : 5314
ROUTE_NODES : 31
ROUTE_SCORE : 1717
ROUTE_COST : 5301
NODE_SEQUENCE_SECTION
1
8
38
31
44
18
7
28
6
37
19
27
43
30
36
46
33
20
47
21
13
25
14
23
11
12
15
40
3
22
16
-1
DEPOT_SECTION
1
-1
EOF
